(declare-fun temp9139_1 () (_ BitVec 64))
(declare-fun var139826 () (_ BitVec 64))
(declare-fun var139820 () (_ BitVec 64))
(declare-fun temp9139_2 () (_ BitVec 64))
(declare-fun var75949 () (_ BitVec 64))
(declare-fun k!0 () Bool)
(declare-fun ARGNAME_filter_sizes_NAMEEND_DIM () (_ BitVec 64))
(declare-fun ARGNAME_data_format_NAMEEND_STRFMT () (_ BitVec 64))
(declare-fun temp9139_3 () (_ BitVec 64))
(declare-fun var76022 () (_ BitVec 64))
(declare-fun var76026 () (_ BitVec 64))
(declare-fun temp9139_4 () (_ BitVec 64))
(declare-fun var76027 () (_ BitVec 64))
(declare-fun temp9139_5 () (_ BitVec 64))
(declare-fun temp9139_6 () (_ BitVec 64))
(declare-fun ARGNAME_input_NAMEEND_DIM () (_ BitVec 64))
(declare-fun var76042 () (_ BitVec 64))
(declare-fun temp9139_7 () (_ BitVec 64))
(declare-fun temp9139_8 () (_ BitVec 64))
(declare-fun ARGNAME_out_backprop_NAMEEND_DIM () (_ BitVec 64))
(declare-fun var76103 () (_ BitVec 64))
(declare-fun temp9139_9 () (_ BitVec 64))
(declare-fun temp9139_10 () (_ BitVec 64))
(declare-fun ARGNAME_input_NAMEEND_DIMSIZE
             ()
             (Array (_ BitVec 64) (_ BitVec 64)))
(declare-fun temp9139_11 () (_ BitVec 64))
(declare-fun temp9139_12 () (_ BitVec 64))
(declare-fun temp9139_13 () (_ BitVec 64))
(declare-fun temp9139_14 () (_ BitVec 64))
(declare-fun temp9139_15 () (_ BitVec 64))
(declare-fun temp9139_16 () (_ BitVec 64))
(declare-fun temp9139_17 () (_ BitVec 64))
(declare-fun temp9139_18 () (_ BitVec 64))
(declare-fun temp9139_19 () (_ BitVec 64))
(declare-fun temp9139_20 () (_ BitVec 64))
(declare-fun temp9139_21 () (_ BitVec 64))
(declare-fun temp9139_22 () (_ BitVec 64))
(declare-fun temp9139_23 () (_ BitVec 64))
(declare-fun var76131 () (_ BitVec 64))
(declare-fun temp9139_24 () (_ BitVec 64))
(declare-fun ARGNAME_out_backprop_NAMEEND_DIMSIZE
             ()
             (Array (_ BitVec 64) (_ BitVec 64)))
(declare-fun temp9139_25 () (_ BitVec 64))
(declare-fun temp9139_26 () (_ BitVec 64))
(declare-fun temp9139_27 () (_ BitVec 64))
(declare-fun temp9139_28 () (_ BitVec 64))
(declare-fun temp9139_29 () (_ BitVec 64))
(declare-fun temp9139_30 () (_ BitVec 64))
(declare-fun temp9139_31 () (_ BitVec 64))
(declare-fun temp9139_32 () (_ BitVec 64))
(declare-fun temp9139_33 () (_ BitVec 64))
(declare-fun temp9139_34 () (_ BitVec 64))
(declare-fun temp9139_35 () (_ BitVec 64))
(declare-fun temp9139_36 () (_ BitVec 64))
(declare-fun temp9139_37 () (_ BitVec 64))
(declare-fun var76165 () (_ BitVec 64))
(declare-fun temp9139_38 () (_ BitVec 64))
(declare-fun ARGNAME_input_NAMEEND_NUMELEMENT () (_ BitVec 64))
(declare-fun var76268 () (_ BitVec 64))
(declare-fun temp9139_39 () (_ BitVec 64))
(declare-fun temp9139_40 () (_ BitVec 64))
(declare-fun var341046 () (_ BitVec 64))
(declare-fun temp9139_41 () (_ BitVec 64))
(declare-fun var341064 () (_ BitVec 64))
(declare-fun temp9139_42 () (_ BitVec 64))
(declare-fun temp9139_44 () (_ BitVec 64))
(declare-fun temp9139_43 () (_ BitVec 64))
(declare-fun temp9139_45 () (_ BitVec 64))
(declare-fun var537654 () (_ BitVec 64))
(declare-fun temp9139_46 () (_ BitVec 64))
(declare-fun var537672 () (_ BitVec 64))
(declare-fun temp9139_47 () (_ BitVec 64))
(declare-fun temp9139_49 () (_ BitVec 64))
(declare-fun temp9139_48 () (_ BitVec 64))
(declare-fun temp9139_51 () (_ BitVec 64))
(declare-fun temp9139_50 () (_ BitVec 64))
(declare-fun temp9139_52 () (_ BitVec 64))
(declare-fun var668726 () (_ BitVec 64))
(declare-fun temp9139_53 () (_ BitVec 64))
(declare-fun var668744 () (_ BitVec 64))
(declare-fun temp9139_54 () (_ BitVec 64))
(declare-fun temp9139_56 () (_ BitVec 64))
(declare-fun temp9139_55 () (_ BitVec 64))
(declare-fun temp9139_58 () (_ BitVec 64))
(declare-fun temp9139_57 () (_ BitVec 64))
(declare-fun temp9139_60 () (_ BitVec 64))
(declare-fun temp9139_59 () (_ BitVec 64))
(declare-fun temp9139_62 () (_ BitVec 64))
(declare-fun temp9139_61 () (_ BitVec 64))
(declare-fun temp9139_64 () (_ BitVec 64))
(declare-fun temp9139_63 () (_ BitVec 64))
(declare-fun temp9139_66 () (_ BitVec 64))
(declare-fun temp9139_65 () (_ BitVec 64))
(declare-fun temp9139_68 () (_ BitVec 64))
(declare-fun temp9139_67 () (_ BitVec 64))
(declare-fun temp9139_70 () (_ BitVec 64))
(declare-fun temp9139_69 () (_ BitVec 64))
(declare-fun temp9139_71 () (_ BitVec 64))
(declare-fun var1123378 () (_ BitVec 64))
(declare-fun temp9139_72 () (_ BitVec 64))
(declare-fun var1123379 () (_ BitVec 64))
(declare-fun var1123380 () (_ BitVec 64))
(declare-fun var1123376 () (_ BitVec 64))
(declare-fun var730076 () (_ BitVec 64))
(declare-fun temp9139_73 () (_ BitVec 64))
(declare-fun var1188914 () (_ BitVec 64))
(declare-fun temp9139_74 () (_ BitVec 64))
(declare-fun var1188915 () (_ BitVec 64))
(declare-fun var1188916 () (_ BitVec 64))
(declare-fun var1188912 () (_ BitVec 64))
(declare-fun var730083 () (_ BitVec 64))
(declare-fun temp9139_75 () (_ BitVec 64))
(declare-fun var1254450 () (_ BitVec 64))
(declare-fun temp9139_76 () (_ BitVec 64))
(declare-fun var1254451 () (_ BitVec 64))
(declare-fun var1254452 () (_ BitVec 64))
(declare-fun var1254448 () (_ BitVec 64))
(declare-fun var730088 () (_ BitVec 64))
(declare-fun var76450 () (_ BitVec 64))
(declare-fun temp9139_77 () (_ BitVec 64))
(declare-fun temp9139_78 () (_ BitVec 64))
(declare-fun var76511 () (_ BitVec 64))
(declare-fun var76512 () (_ BitVec 64))
(declare-fun temp9139_80 () (_ BitVec 64))
(declare-fun temp9139_79 () (_ BitVec 64))
(declare-fun temp9139_82 () (_ BitVec 64))
(declare-fun temp9139_81 () (_ BitVec 64))
(assert (or (= ARGNAME_data_format_NAMEEND_STRFMT #x0000000000000000)
    (= ARGNAME_data_format_NAMEEND_STRFMT #x0000000000000001)
    (= ARGNAME_data_format_NAMEEND_STRFMT #x0000000000000002)
    (= ARGNAME_data_format_NAMEEND_STRFMT #x0000000000000003)
    (= ARGNAME_data_format_NAMEEND_STRFMT #x0000000000000004)
    (= ARGNAME_data_format_NAMEEND_STRFMT #x0000000000000005)))
(assert (= temp9139_1 #x0000000000000001))
(assert (= var139826
   (ite (= ARGNAME_filter_sizes_NAMEEND_DIM temp9139_1)
        #x0000000000000001
        #x0000000000000000)))
(assert (= var139820 var139826))
(assert (= var75949 var139820))
(assert (= temp9139_2 #x0000000000000001))
(assert (= var75949 temp9139_2))
(assert (= temp9139_3 #x0000000000000000))
(assert (= var76022 temp9139_3))
(assert (= var76026 var76022))
(assert (= temp9139_4 #x0000000000000000))
(assert (= var76027 (ite (= var76026 temp9139_4) #x0000000000000001 #x0000000000000000)))
(assert (= temp9139_5 #x0000000000000001))
(assert (= var76027 temp9139_5))
(assert (= temp9139_6 #x0000000000000005))
(assert (= var76042
   (ite (= ARGNAME_input_NAMEEND_DIM temp9139_6)
        #x0000000000000001
        #x0000000000000000)))
(assert (= temp9139_7 #x0000000000000001))
(assert (= var76042 temp9139_7))
(assert (= temp9139_8 #x0000000000000005))
(assert (= var76103
   (ite (= ARGNAME_out_backprop_NAMEEND_DIM temp9139_8)
        #x0000000000000001
        #x0000000000000000)))
(assert (= temp9139_9 #x0000000000000001))
(assert (= var76103 temp9139_9))
(assert (= temp9139_10 #x0000000000000000))
(assert (= temp9139_11 (select ARGNAME_input_NAMEEND_DIMSIZE temp9139_10)))
(assert (= temp9139_12 #x0000000000000001))
(assert (= temp9139_13 (select ARGNAME_input_NAMEEND_DIMSIZE temp9139_12)))
(assert (= temp9139_14 #x0000000000000002))
(assert (= temp9139_15 (select ARGNAME_input_NAMEEND_DIMSIZE temp9139_14)))
(assert (= temp9139_16 #x0000000000000003))
(assert (= temp9139_17 (select ARGNAME_input_NAMEEND_DIMSIZE temp9139_16)))
(assert (= temp9139_18 #x0000000000000004))
(assert (= temp9139_19 (select ARGNAME_input_NAMEEND_DIMSIZE temp9139_18)))
(assert (= temp9139_20 #x0000000000000005))
(assert (= temp9139_21 (select ARGNAME_input_NAMEEND_DIMSIZE temp9139_20)))
(assert (= temp9139_22 #x0000000000000004))
(assert (= temp9139_23 (select ARGNAME_input_NAMEEND_DIMSIZE temp9139_22)))
(assert (= var76131 temp9139_23))
(assert (= temp9139_24 #x0000000000000000))
(assert (= temp9139_25 (select ARGNAME_out_backprop_NAMEEND_DIMSIZE temp9139_24)))
(assert (= temp9139_26 #x0000000000000001))
(assert (= temp9139_27 (select ARGNAME_out_backprop_NAMEEND_DIMSIZE temp9139_26)))
(assert (= temp9139_28 #x0000000000000002))
(assert (= temp9139_29 (select ARGNAME_out_backprop_NAMEEND_DIMSIZE temp9139_28)))
(assert (= temp9139_30 #x0000000000000003))
(assert (= temp9139_31 (select ARGNAME_out_backprop_NAMEEND_DIMSIZE temp9139_30)))
(assert (= temp9139_32 #x0000000000000004))
(assert (= temp9139_33 (select ARGNAME_out_backprop_NAMEEND_DIMSIZE temp9139_32)))
(assert (= temp9139_34 #x0000000000000005))
(assert (= temp9139_35 (select ARGNAME_out_backprop_NAMEEND_DIMSIZE temp9139_34)))
(assert (= temp9139_36 #x0000000000000004))
(assert (= temp9139_37 (select ARGNAME_out_backprop_NAMEEND_DIMSIZE temp9139_36)))
(assert (= var76165 temp9139_37))
(assert (= temp9139_38 #x0000000000000000))
(assert (= var76268
   (ite (= ARGNAME_input_NAMEEND_NUMELEMENT temp9139_38)
        #x0000000000000001
        #x0000000000000000)))
(assert (= temp9139_39 #x0000000000000000))
(assert (= var76268 temp9139_39))
(assert (= temp9139_40 #x0000000000000001))
(assert (= var341046 temp9139_40))
(assert (= temp9139_41 #x0000000000000001))
(assert (= var341064
   (ite (bvslt var341046 temp9139_41) #x0000000000000001 #x0000000000000000)))
(assert (= temp9139_42 #x0000000000000000))
(assert (= var341064 temp9139_42))
(assert (= temp9139_44 #x0000000000000000))
(assert (= temp9139_43 temp9139_44))
(assert (= temp9139_45 #x0000000000000001))
(assert (= var537654 temp9139_45))
(assert (= temp9139_46 #x0000000000000001))
(assert (= var537672
   (ite (bvslt var537654 temp9139_46) #x0000000000000001 #x0000000000000000)))
(assert (= temp9139_47 #x0000000000000000))
(assert (= var537672 temp9139_47))
(assert (= temp9139_49 #x0000000000000000))
(assert (= temp9139_48 temp9139_49))
(assert (= temp9139_51 #x0000000000000000))
(assert (= temp9139_50 temp9139_51))
(assert (= temp9139_52 #x0000000000000001))
(assert (= var668726 temp9139_52))
(assert (= temp9139_53 #x0000000000000001))
(assert (= var668744
   (ite (bvslt var668726 temp9139_53) #x0000000000000001 #x0000000000000000)))
(assert (= temp9139_54 #x0000000000000000))
(assert (= var668744 temp9139_54))
(assert (= temp9139_56 #x0000000000000000))
(assert (= temp9139_55 temp9139_56))
(assert (= temp9139_58 #x0000000000000000))
(assert (= temp9139_57 temp9139_58))
(assert (= temp9139_60 #x00000000000000ff))
(assert (= temp9139_59 temp9139_60))
(assert (= temp9139_62 #x00000000000000ff))
(assert (= temp9139_61 temp9139_62))
(assert (= temp9139_64 #x00000000000000ff))
(assert (= temp9139_63 temp9139_64))
(assert (= temp9139_66 #x0000000000000000))
(assert (= temp9139_65 temp9139_66))
(assert (= temp9139_68 #x0000000000000000))
(assert (= temp9139_67 temp9139_68))
(assert (= temp9139_70 #x0000000000000000))
(assert (= temp9139_69 temp9139_70))
(assert (= temp9139_71 #x0000000000008000))
(assert (= var1123378 temp9139_71))
(assert (= temp9139_72 #x0000000000000001))
(assert (= var1123379
   (ite (bvslt temp9139_69 temp9139_72) #x0000000000000001 #x0000000000000000)))
(assert (= var1123380 (ite (= var1123379 #x0000000000000001) var1123378 temp9139_69)))
(assert (= var1123376 var1123380))
(assert (= var730076 var1123376))
(assert (= temp9139_73 #x0000000000040000))
(assert (= var1188914 temp9139_73))
(assert (= temp9139_74 #x0000000000000001))
(assert (= var1188915
   (ite (bvslt temp9139_67 temp9139_74) #x0000000000000001 #x0000000000000000)))
(assert (= var1188916 (ite (= var1188915 #x0000000000000001) var1188914 temp9139_67)))
(assert (= var1188912 var1188916))
(assert (= var730083 var1188912))
(assert (= temp9139_75 #x0000000000200000))
(assert (= var1254450 temp9139_75))
(assert (= temp9139_76 #x0000000000000001))
(assert (= var1254451
   (ite (bvslt temp9139_65 temp9139_76) #x0000000000000001 #x0000000000000000)))
(assert (= var1254452 (ite (= var1254451 #x0000000000000001) var1254450 temp9139_65)))
(assert (= var1254448 var1254452))
(assert (= var730088 var1254448))
(assert (= var76450 var730088))
(assert (= temp9139_77 #x0000000000000003))
(assert (= temp9139_78 #xffffffffffffffff))
(assert (= var76512 (bvadd var76511 temp9139_78)))
(assert (= temp9139_80 #x0000000000000000))
(assert (= temp9139_79 temp9139_80))
(assert (= temp9139_82 #x0000000000000000))
(assert (= temp9139_81 temp9139_82))
(model-add temp9139_1 () (_ BitVec 64) #x0000000000000001)
(model-add var139826 () (_ BitVec 64) #x0000000000000001)
(model-add var139820 () (_ BitVec 64) #x0000000000000001)
(model-add temp9139_2 () (_ BitVec 64) #x0000000000000001)
(model-add var75949 () (_ BitVec 64) #x0000000000000001)
(model-del k!0)
(model-add ARGNAME_filter_sizes_NAMEEND_DIM
           ()
           (_ BitVec 64)
           (ite k!0 #x0000000000000001 (bvnot #x0000000000000001)))


